\* Problem: Unknown *\

Maximize
 obj: + xp_0_0 + xp_1_0 + xp_1_1 + xp_2_0 + xp_3_0 + xp_3_1 + xp_4_0
 + xp_5_0 + xp_6_0 + xp_7_0 + xp_8_0 + xp_9_0 + xp_9_1 + xp_10_0
 + xp_11_0 + xp_11_1 + xp_12_0 + xp_13_0 + xp_13_1 + xp_14_0 + xp_14_1
 + xp_15_0 + xp_16_0 + xp_17_0 + xp_17_1 + xp_18_0 + xp_18_1 + xp_19_0
 + xp_19_1 + xp_20_0 + xp_21_0 + xp_22_0 + xp_22_1 + xp_23_0 + xp_24_0
 + xp_24_1 + xp_25_0 + xp_26_0 + xp_27_0 + xp_28_0 + xp_28_1 + xp_29_0
 + xp_30_0 + xp_31_0 + xp_32_0 + xp_33_0 + xp_34_0 + xp_34_1 + xp_35_0
 + xp_36_0 + xp_37_0 + xp_38_0 + xp_39_0 + xp_40_0 + xp_40_1 + xp_40_2
 + xp_41_0 + xp_42_0 + xp_42_1 + xp_42_2 + xp_43_0 + xp_44_0 + xp_45_0
 + xp_46_0 + xp_47_0 + xp_48_0 + xp_48_1 + xp_49_0 + xp_50_0 + xp_50_1
 + xp_51_0 + xp_52_0 + xp_53_0 + xp_54_0 + xp_55_0 + xp_56_0 + xp_57_0
 + xp_57_1 + xp_58_0 + xp_58_1 + xp_59_0 + xp_60_0 + xp_60_1 + xp_61_0
 + xp_61_1 + xp_62_0 + xp_63_0 + xp_63_1 + xp_64_0 + xp_65_0 + xp_65_1
 + xp_66_0 + xp_67_0 + xp_67_1 + xp_68_0 + xp_68_1 + xp_69_0 + xp_70_0
 + xp_71_0 + xp_72_0 + xp_73_0 + xp_74_0 + xp_75_0 + xp_76_0 + xp_77_0
 + xp_77_1 + xp_78_0 + xp_78_1 + xp_78_2 + xp_78_3 + xp_79_0 + xp_79_1
 + xp_80_0 + xp_80_1 + xp_81_0 + xp_81_1 + xp_82_0 + xp_83_0 + xp_84_0
 + xp_85_0 + xp_85_1 + xp_86_0 + xp_86_1 + xp_87_0 + xp_88_0 + xp_89_0
 + xp_90_0 + xp_90_1 + xp_90_2 + xp_91_0 + xp_91_1 + xp_92_0 + xp_93_0
 + xp_94_0 + xp_95_0 + xp_96_0 + xp_97_0 + xp_98_0 + xp_98_1 + xp_99_0
 + xp_100_0 + xp_101_0 + xp_102_0 + xp_103_0 + xp_104_0 + xp_105_0
 + xp_106_0 + xp_107_0 + xp_108_0 + xp_108_1 + xp_108_2 + xp_109_0
 + xp_109_1 + xp_110_0 + xp_111_0 + xp_111_1 + xp_112_0 + xp_112_1
 + xp_112_2 + xp_113_0 + xp_114_0 + xp_115_0 + xp_115_1 + xp_116_0
 + xp_116_1 + xp_117_0 + xp_118_0 + xp_119_0 + xp_120_0 + xp_120_1
 + xp_120_2 + xp_121_0 + xp_122_0 + xp_123_0 + xp_124_0 + xp_125_0
 + xp_125_1 + xp_126_0 + xp_126_1 + xp_126_2 + xp_126_3 + xp_126_4
 + xp_127_0 + xp_127_1 + xp_128_0 + xp_128_1 + xp_129_0 + xp_129_1
 + xp_130_0 + xp_131_0 + xp_131_1 + xp_131_2

Subject To
 r_1: + xp_128_1 + xp_122_0 + xp_121_0 + xp_108_2 + xp_107_0 + xp_78_3
 + xp_67_1 + xp_57_1 + xp_40_2 + xp_40_1 + xp_25_0 + xp_22_1 + xp_18_0
 + xp_16_0 + xp_13_1 + xp_4_0 <= 38281.3816343724
 r_2: + xp_131_2 + xp_131_1 + xp_127_1 + xp_126_4 + xp_126_1 + xp_120_2
 + xp_120_0 + xp_93_0 + xp_90_1 + xp_85_1 + xp_85_0 + xp_77_1 + xp_75_0
 + xp_71_0 + xp_66_0 + xp_65_1 + xp_65_0 + xp_61_1 + xp_55_0 + xp_52_0
 + xp_48_1 + xp_48_0 + xp_42_2 + xp_42_1 + xp_32_0 + xp_28_1 + xp_28_0
 + xp_24_0 + xp_19_1 + xp_19_0 + xp_1_1 <= 35391.3423699169
 r_3: + xp_126_3 + xp_114_0 + xp_95_0 + xp_76_0 + xp_34_0 <= 40000
 r_4: + xp_117_0 + xp_112_2 + xp_91_1 + xp_91_0 + xp_84_0 + xp_79_1
 + xp_79_0 + xp_46_0 + xp_43_0 + xp_40_2 + xp_40_1 + xp_40_0 + xp_34_1
 <= 37422.3826714801
 r_5: + xp_130_0 + xp_112_2 + xp_99_0 + xp_86_0 + xp_7_0 + xp_2_0
 <= 40000
 r_6: + xp_126_4 + xp_126_3 + xp_126_2 + xp_119_0 + xp_114_0 + xp_95_0
 + xp_83_0 + xp_81_0 + xp_70_0 + xp_68_1 + xp_58_1 + xp_53_0 + xp_48_1
 + xp_45_0 + xp_34_0 + xp_18_0 <= 40000
 r_7: + xp_112_1 + xp_111_1 + xp_104_0 + xp_88_0 + xp_82_0 + xp_81_1
 + xp_78_2 + xp_50_1 + xp_44_0 + xp_27_0 + xp_18_1 + xp_3_1
 <= 37422.3826714801
 r_8: + xp_131_2 + xp_131_1 + xp_127_1 + xp_126_4 + xp_126_1 + xp_120_2
 + xp_120_0 + xp_118_0 + xp_103_0 + xp_90_1 + xp_77_1 + xp_71_0
 + xp_61_1 + xp_55_0 + xp_42_2 + xp_42_1 + xp_32_0 + xp_24_0 + xp_1_1
 <= 38281.3816343724
 r_9: + xp_131_0 + xp_127_0 + xp_122_0 + xp_120_1 + xp_108_2 + xp_78_3
 + xp_77_0 + xp_67_1 + xp_57_1 + xp_42_0 + xp_33_0 + xp_24_1 <= 40000
 r_10: + xp_112_2 + xp_112_1 + xp_111_1 + xp_106_0 + xp_99_0 + xp_98_0
 + xp_88_0 + xp_86_0 + xp_85_0 + xp_78_2 + xp_50_1 + xp_26_0 + xp_24_0
 + xp_8_0 + xp_7_0 + xp_3_1 + xp_2_0 <= 40000
 r_11: + xp_119_0 + xp_112_0 + xp_111_0 + xp_95_0 + xp_81_0 + xp_78_3
 + xp_78_1 + xp_78_0 + xp_59_0 + xp_53_0 + xp_50_0 + xp_49_0 + xp_45_0
 + xp_34_0 + xp_18_0 + xp_4_0 + xp_3_0 <= 36974.2913645353
 r_12: + xp_129_0 + xp_128_0 + xp_123_0 + xp_117_0 + xp_112_2 + xp_112_1
 + xp_111_1 + xp_108_1 + xp_101_0 + xp_91_1 + xp_82_0 + xp_81_1
 + xp_80_1 + xp_79_1 + xp_78_2 + xp_78_0 + xp_73_0 + xp_63_1 + xp_60_0
 + xp_50_1 + xp_46_0 + xp_44_0 + xp_40_2 + xp_40_0 + xp_18_1 + xp_17_1
 + xp_15_0 + xp_14_1 + xp_13_0 + xp_9_0 <= 36378.8140472078
 r_13: + xp_129_1 + xp_128_1 + xp_120_2 + xp_120_1 + xp_109_1 + xp_100_0
 + xp_91_0 + xp_90_0 + xp_80_0 + xp_79_0 + xp_68_0 + xp_63_0 + xp_60_1
 + xp_40_1 + xp_34_1 + xp_31_0 + xp_30_0 + xp_17_0 + xp_13_1 + xp_9_1
 <= 36974.2913645353
 r_14: + xp_131_2 + xp_131_1 + xp_131_0 + xp_126_4 + xp_126_3 + xp_126_2
 + xp_125_1 + xp_125_0 + xp_124_0 + xp_115_1 + xp_115_0 + xp_98_1
 + xp_94_0 + xp_86_1 + xp_85_1 + xp_77_1 + xp_77_0 + xp_68_1 + xp_65_1
 + xp_65_0 + xp_58_1 + xp_56_0 + xp_51_0 + xp_48_1 + xp_41_0 + xp_38_0
 + xp_35_0 + xp_24_1 + xp_20_0 + xp_19_1 + xp_19_0 + xp_12_0 + xp_0_0
 <= 37422.3826714801
 r_15: + xp_131_2 + xp_131_0 + xp_126_4 + xp_126_3 + xp_126_2 + xp_125_0
 + xp_124_0 + xp_120_2 + xp_120_1 + xp_116_0 + xp_115_0 + xp_109_1
 + xp_98_1 + xp_94_0 + xp_90_0 + xp_89_0 + xp_86_1 + xp_85_1 + xp_77_1
 + xp_77_0 + xp_68_1 + xp_68_0 + xp_65_0 + xp_58_1 + xp_51_0 + xp_48_1
 + xp_42_2 + xp_42_0 + xp_38_0 + xp_36_0 + xp_28_1 + xp_24_1 + xp_19_1
 + xp_12_0 + xp_11_0 + xp_0_0 <= 36378.8140472078
 r_16: + xp_128_0 + xp_123_0 + xp_108_1 + xp_108_0 + xp_78_2 + xp_78_1
 + xp_78_0 + xp_73_0 + xp_67_0 + xp_57_0 + xp_46_0 + xp_44_0 + xp_40_0
 + xp_22_0 + xp_18_1 + xp_13_0 + xp_6_0 <= 36378.8140472078
 r_17: + xp_129_0 + xp_126_0 + xp_112_2 + xp_112_1 + xp_111_1 + xp_109_0
 + xp_97_0 + xp_91_1 + xp_90_2 + xp_81_1 + xp_80_1 + xp_79_1 + xp_63_1
 + xp_62_0 + xp_61_0 + xp_60_0 + xp_47_0 + xp_40_2 + xp_22_1 + xp_17_1
 + xp_9_0 + xp_1_0 <= 35391.3423699169
 r_18: + xp_126_1 + xp_126_0 + xp_106_0 + xp_99_0 + xp_98_0 + xp_92_0
 + xp_86_0 + xp_85_0 + xp_68_0 + xp_58_0 + xp_48_0 + xp_32_0 + xp_30_0
 + xp_26_0 + xp_24_0 + xp_5_0 + xp_2_0 <= 36974.2913645353
 r_19: + xp_131_1 + xp_125_1 + xp_116_1 + xp_115_1 + xp_110_0 + xp_108_1
 + xp_78_0 + xp_65_1 + xp_56_0 + xp_42_1 + xp_28_0 + xp_19_0 + xp_14_1
 + xp_11_1 + xp_3_0 <= 36974.2913645353
 r_20: + xp_129_1 + xp_128_1 + xp_119_0 + xp_112_0 + xp_111_0 + xp_108_2
 + xp_108_0 + xp_107_0 + xp_95_0 + xp_91_0 + xp_81_0 + xp_80_0 + xp_79_0
 + xp_78_3 + xp_78_1 + xp_69_0 + xp_64_0 + xp_63_0 + xp_60_1 + xp_50_0
 + xp_49_0 + xp_45_0 + xp_40_1 + xp_18_0 + xp_17_0 + xp_14_0 + xp_13_1
 + xp_10_0 + xp_9_1 + xp_4_0 <= 35391.3423699169
 r_21: + xp_126_3 + xp_113_0 + xp_86_1 + xp_77_1 + xp_77_0 + xp_65_1
 + xp_65_0 + xp_38_0 + xp_20_0 + xp_0_0 <= 37422.3826714801
 r_22: + xp_126_4 + xp_126_2 + xp_124_0 + xp_105_0 + xp_98_1 + xp_94_0
 + xp_85_1 + xp_83_0 + xp_68_1 + xp_58_1 + xp_48_1 + xp_41_0 + xp_24_1
 <= 37422.3826714801
 r_23: + xp_128_1 + xp_128_0 + xp_117_0 + xp_112_2 + xp_112_1 + xp_111_1
 + xp_104_0 + xp_100_0 + xp_91_1 + xp_91_0 + xp_84_0 + xp_82_0 + xp_81_1
 + xp_80_1 + xp_80_0 + xp_79_1 + xp_79_0 + xp_78_2 + xp_73_0 + xp_60_1
 + xp_60_0 + xp_50_1 + xp_46_0 + xp_44_0 + xp_40_2 + xp_40_1 + xp_40_0
 + xp_34_1 + xp_21_0 + xp_18_1 + xp_15_0 + xp_9_1 + xp_9_0 + xp_3_1
 <= 37422.3826714801
 r_24: + xp_128_0 + xp_126_4 + xp_126_1 + xp_103_0 + xp_90_1 + xp_61_1
 + xp_40_0 + xp_39_0 + xp_22_0 + xp_18_1 + xp_13_0 + xp_1_1 <= 40000
 r_25: + xp_131_0 + xp_127_0 + xp_126_3 + xp_126_2 + xp_126_0 + xp_120_1
 + xp_94_0 + xp_90_2 + xp_90_0 + xp_89_0 + xp_77_0 + xp_74_0 + xp_61_0
 + xp_42_0 + xp_38_0 + xp_24_1 + xp_12_0 + xp_1_0 <= 36378.8140472078
 r_26: + xp_128_1 + xp_121_0 + xp_112_2 + xp_112_1 + xp_112_0 + xp_108_2
 + xp_107_0 + xp_81_1 + xp_81_0 + xp_79_1 + xp_79_0 + xp_78_3 + xp_67_1
 + xp_64_0 + xp_60_1 + xp_60_0 + xp_57_1 + xp_47_0 + xp_40_2 + xp_40_1
 + xp_37_0 + xp_29_0 + xp_25_0 + xp_22_1 + xp_18_0 + xp_17_1 + xp_17_0
 + xp_13_1 + xp_4_0 <= 35391.3423699169
 r_27: + xp_131_2 + xp_127_1 + xp_126_4 + xp_125_0 + xp_120_2 + xp_116_0
 + xp_115_0 + xp_108_0 + xp_98_1 + xp_86_1 + xp_85_1 + xp_78_1 + xp_77_1
 + xp_72_0 + xp_67_0 + xp_65_0 + xp_58_1 + xp_57_0 + xp_52_0 + xp_50_0
 + xp_48_1 + xp_42_2 + xp_28_1 + xp_23_0 + xp_19_1 + xp_14_0 + xp_11_0
 <= 35391.3423699169
 r_28: + xp_131_1 + xp_126_1 + xp_126_0 + xp_125_1 + xp_120_0 + xp_116_1
 + xp_115_1 + xp_109_0 + xp_99_0 + xp_98_0 + xp_96_0 + xp_92_0 + xp_90_2
 + xp_90_1 + xp_86_0 + xp_85_0 + xp_75_0 + xp_65_1 + xp_58_0 + xp_54_0
 + xp_48_0 + xp_42_1 + xp_32_0 + xp_28_0 + xp_26_0 + xp_24_0 + xp_19_0
 + xp_11_1 <= 35391.3423699169
 r_29: + xp_129_1 + xp_129_0 + xp_95_0 + xp_93_0 + xp_87_0 + xp_71_0
 + xp_62_0 + xp_49_0 + xp_45_0 + xp_10_0 + xp_9_1 + xp_9_0 + xp_1_1
 + xp_1_0 <= 35391.3423699169
 r_30: + xp_125_1 + xp_125_0 + xp_121_0 + xp_102_0 + xp_99_0 + xp_96_0
 + xp_92_0 + xp_57_1 + xp_57_0 + xp_37_0 + xp_26_0 + xp_23_0 + xp_11_1
 + xp_11_0 <= 35391.3423699169

Bounds
 0 <= xp_0_0 <= 235.55542813797
 0 <= xp_1_0 <= 130.185262558295
 0 <= xp_1_1 <= 52.0741050233182
 0 <= xp_2_0 <= 114.816821815854
 0 <= xp_3_0 <= 155.99672327924
 0 <= xp_3_1 <= 25.9994538798733
 0 <= xp_4_0 <= 787.531541727196
 0 <= xp_5_0 <= 1081.51524366028
 0 <= xp_6_0 <= 1788.83950413044
 0 <= xp_7_0 <= 637.184012873771
 0 <= xp_8_0 <= 1507.15995444926
 0 <= xp_9_0 <= 61.736953392266
 0 <= xp_9_1 <= 46.3027150441995
 0 <= xp_10_0 <= 54.7436078801092
 0 <= xp_11_0 <= 29.6089225313091
 0 <= xp_11_1 <= 11.8435690125236
 0 <= xp_12_0 <= 2063.61030522099
 0 <= xp_13_0 <= 215.609353975609
 0 <= xp_13_1 <= 35.9348923292681
 0 <= xp_14_0 <= 94.0999757018842
 0 <= xp_14_1 <= 125.466634269179
 0 <= xp_15_0 <= 506.24677767976
 0 <= xp_16_0 <= 2636.44425979338
 0 <= xp_17_0 <= 169.457033458552
 0 <= xp_17_1 <= 127.092775093914
 0 <= xp_18_0 <= 204.799747337194
 0 <= xp_18_1 <= 153.599810502896
 0 <= xp_19_0 <= 603.909223743348
 0 <= xp_19_1 <= 452.931917807511
 0 <= xp_20_0 <= 128.042140546505
 0 <= xp_21_0 <= 274.047027428672
 0 <= xp_22_0 <= 702.906421235331
 0 <= xp_22_1 <= 527.179815926498
 0 <= xp_23_0 <= 51.9143108382286
 0 <= xp_24_0 <= 194.347327700745
 0 <= xp_24_1 <= 145.760495775559
 0 <= xp_25_0 <= 577.900370205528
 0 <= xp_26_0 <= 15.3308421106556
 0 <= xp_27_0 <= 337.410121645673
 0 <= xp_28_0 <= 380.874139990046
 0 <= xp_28_1 <= 285.655604992534
 0 <= xp_29_0 <= 2444.38104897363
 0 <= xp_30_0 <= 183.11473645474
 0 <= xp_31_0 <= 190.352473073505
 0 <= xp_32_0 <= 2248.10679139386
 0 <= xp_33_0 <= 8048.82370330543
 0 <= xp_34_0 <= 364.424738583763
 0 <= xp_34_1 <= 145.769895433505
 0 <= xp_35_0 <= 260.69011348677
 0 <= xp_36_0 <= 318.52620883126
 0 <= xp_37_0 <= 364.387139951977
 0 <= xp_38_0 <= 334.383431786917
 0 <= xp_39_0 <= 1571.37841753939
 0 <= xp_40_0 <= 484.608765087038
 0 <= xp_40_1 <= 242.304382543519
 0 <= xp_40_2 <= 121.15219127176
 0 <= xp_41_0 <= 79.8124956232842
 0 <= xp_42_0 <= 324.006209414039
 0 <= xp_42_1 <= 64.8012418828079
 0 <= xp_42_2 <= 64.8012418828079
 0 <= xp_43_0 <= 491.442316414105
 0 <= xp_44_0 <= 458.017132756539
 0 <= xp_45_0 <= 42.5052532338348
 0 <= xp_46_0 <= 1603.55344669007
 0 <= xp_47_0 <= 877.871654250501
 0 <= xp_48_0 <= 2488.22105363586
 0 <= xp_48_1 <= 414.70350893931
 0 <= xp_49_0 <= 87.9713987208005
 0 <= xp_50_0 <= 559.561637552009
 0 <= xp_50_1 <= 223.824655020804
 0 <= xp_51_0 <= 708.706010188289
 0 <= xp_52_0 <= 661.594924560695
 0 <= xp_53_0 <= 189.694497017253
 0 <= xp_54_0 <= 3689.07435458424
 0 <= xp_55_0 <= 1183.76472280174
 0 <= xp_56_0 <= 95.6697185789409
 0 <= xp_57_0 <= 176.412780338923
 0 <= xp_57_1 <= 29.4021300564872
 0 <= xp_58_0 <= 3892.36075699205
 0 <= xp_58_1 <= 648.726792832009
 0 <= xp_59_0 <= 10631.6429145143
 0 <= xp_60_0 <= 290.167440806829
 0 <= xp_60_1 <= 386.889921075772
 0 <= xp_61_0 <= 1381.26093591454
 0 <= xp_61_1 <= 1035.94570193591
 0 <= xp_62_0 <= 131.068830405261
 0 <= xp_63_0 <= 94.0435777542055
 0 <= xp_63_1 <= 37.6174311016822
 0 <= xp_64_0 <= 993.214856911357
 0 <= xp_65_0 <= 447.235725091964
 0 <= xp_65_1 <= 74.5392875153273
 0 <= xp_66_0 <= 1678.03633625772
 0 <= xp_67_0 <= 230.930796428318
 0 <= xp_67_1 <= 173.198097321238
 0 <= xp_68_0 <= 840.930998520963
 0 <= xp_68_1 <= 630.698248890723
 0 <= xp_69_0 <= 1716.59373315405
 0 <= xp_70_0 <= 630.933240339384
 0 <= xp_71_0 <= 70.7982236526412
 0 <= xp_72_0 <= 598.363425554944
 0 <= xp_73_0 <= 921.956050019339
 0 <= xp_74_0 <= 952.157151001275
 0 <= xp_75_0 <= 1761.99408103539
 0 <= xp_76_0 <= 1720.14680385781
 0 <= xp_77_0 <= 489.872573537049
 0 <= xp_77_1 <= 81.6454289228415
 0 <= xp_78_0 <= 3994.56323784377
 0 <= xp_78_1 <= 3994.56323784377
 0 <= xp_78_2 <= 11983.6897135313
 0 <= xp_78_3 <= 7989.12647568755
 0 <= xp_79_0 <= 608.270665030499
 0 <= xp_79_1 <= 456.202998772874
 0 <= xp_80_0 <= 128.737715234543
 0 <= xp_80_1 <= 96.5532864259069
 0 <= xp_81_0 <= 223.448668702946
 0 <= xp_81_1 <= 37.2414447838243
 0 <= xp_82_0 <= 219.632407576688
 0 <= xp_83_0 <= 503.483278243504
 0 <= xp_84_0 <= 889.386235234899
 0 <= xp_85_0 <= 350.062061241591
 0 <= xp_85_1 <= 58.3436768735985
 0 <= xp_86_0 <= 146.860255755293
 0 <= xp_86_1 <= 24.4767092925488
 0 <= xp_87_0 <= 141.201661671532
 0 <= xp_88_0 <= 424.986734732723
 0 <= xp_89_0 <= 2219.61642815818
 0 <= xp_90_0 <= 12395.2537367165
 0 <= xp_90_1 <= 6197.62686835826
 0 <= xp_90_2 <= 3098.81343417913
 0 <= xp_91_0 <= 1165.71737954456
 0 <= xp_91_1 <= 1554.28983939274
 0 <= xp_92_0 <= 66.8503673151334
 0 <= xp_93_0 <= 130.41085434901
 0 <= xp_94_0 <= 237.002975461723
 0 <= xp_95_0 <= 61.3233684426223
 0 <= xp_96_0 <= 115.40900026648
 0 <= xp_97_0 <= 527.433606691052
 0 <= xp_98_0 <= 122.609138253459
 0 <= xp_98_1 <= 20.4348563755765
 0 <= xp_99_0 <= 16.3836038006577
 0 <= xp_100_0 <= 503.285885426629
 0 <= xp_101_0 <= 250.030901375499
 0 <= xp_102_0 <= 75.0092704126496
 0 <= xp_103_0 <= 1440.70437276787
 0 <= xp_104_0 <= 131.989996884013
 0 <= xp_105_0 <= 1450.83720403414
 0 <= xp_106_0 <= 41.4524915438327
 0 <= xp_107_0 <= 450.055622475898
 0 <= xp_108_0 <= 121.377783062474
 0 <= xp_108_1 <= 364.133349187423
 0 <= xp_108_2 <= 364.133349187423
 0 <= xp_109_0 <= 414.581313386006
 0 <= xp_109_1 <= 552.775084514674
 0 <= xp_110_0 <= 133.305948996516
 0 <= xp_111_0 <= 2508.80630453858
 0 <= xp_111_1 <= 418.134384089763
 0 <= xp_112_0 <= 3346.13723406605
 0 <= xp_112_1 <= 669.22744681321
 0 <= xp_112_2 <= 669.22744681321
 0 <= xp_113_0 <= 425.710508394599
 0 <= xp_114_0 <= 2399.50708193729
 0 <= xp_115_0 <= 157.914253500315
 0 <= xp_115_1 <= 63.165701400126
 0 <= xp_116_0 <= 91.3270766076822
 0 <= xp_116_1 <= 68.4953074557617
 0 <= xp_117_0 <= 1944.64823425075
 0 <= xp_118_0 <= 3156.9691178938
 0 <= xp_119_0 <= 62.8367133720004
 0 <= xp_120_0 <= 1550.84956458434
 0 <= xp_120_1 <= 310.169912916869
 0 <= xp_120_2 <= 310.169912916869
 0 <= xp_121_0 <= 75.6014488632758
 0 <= xp_122_0 <= 2276.39976181267
 0 <= xp_123_0 <= 514.208287960401
 0 <= xp_124_0 <= 137.780186179025
 0 <= xp_125_0 <= 15.6034321911026
 0 <= xp_125_1 <= 11.7025741433269
 0 <= xp_126_0 <= 3628.18337040715
 0 <= xp_126_1 <= 7256.3667408143
 0 <= xp_126_2 <= 7256.3667408143
 0 <= xp_126_3 <= 3628.18337040715
 0 <= xp_126_4 <= 3628.18337040715
 0 <= xp_127_0 <= 412.315995820912
 0 <= xp_127_1 <= 164.926398328365
 0 <= xp_128_0 <= 290.308435676026
 0 <= xp_128_1 <= 116.12337427041
 0 <= xp_129_0 <= 21.0082355103098
 0 <= xp_129_1 <= 28.010980680413
 0 <= xp_130_0 <= 403.931500932681
 0 <= xp_131_0 <= 219.519611681331
 0 <= xp_131_1 <= 329.279417521996
 0 <= xp_131_2 <= 219.519611681331

End
